c Result of efficient AIG-to-CNF conversion using package CNF
p cnf 264 1059
-2 3 177 179 181 0
-2 3 -177 -179 181 0
2 -181 0
2 -177 179 0
2 -3 0
2 177 -179 0
3 4 -71 0
3 -4 71 0
-3 -4 -71 0
-3 4 71 0
4 -5 68 0
4 5 -68 0
-4 5 68 0
-4 -5 -68 0
-5 201 37 0
-5 6 37 0
-5 -201 233 -6 0
-5 201 -233 -6 0
-5 201 233 6 0
5 -201 6 -37 0
5 201 233 -6 -37 0
5 -201 -233 -6 0
5 -233 6 -37 0
6 -202 -234 0
6 -234 -7 0
6 -202 -7 0
-6 202 7 0
-6 234 7 0
-6 202 234 0
7 -203 -235 0
7 -235 -8 0
7 -203 -8 0
-7 203 8 0
-7 235 8 0
-7 203 235 0
8 -204 -236 0
8 -236 -9 0
8 -204 -9 0
-8 204 9 0
-8 236 9 0
-8 204 236 0
9 -205 -237 0
9 -237 -10 0
9 -205 -10 0
-9 205 10 0
-9 237 10 0
-9 205 237 0
10 -206 -238 0
10 -238 -11 0
10 -206 -11 0
-10 206 11 0
-10 238 11 0
-10 206 238 0
11 -207 -239 0
11 -239 -12 0
11 -207 -12 0
-11 207 12 0
-11 239 12 0
-11 207 239 0
12 -208 -240 0
12 -240 -13 0
12 -208 -13 0
-12 208 13 0
-12 240 13 0
-12 208 240 0
13 -209 -241 0
13 -241 -14 0
13 -209 -14 0
-13 209 14 0
-13 241 14 0
-13 209 241 0
14 -210 -242 0
14 -242 -15 0
14 -210 -15 0
-14 210 15 0
-14 242 15 0
-14 210 242 0
15 -211 -243 0
15 -243 -16 0
15 -211 -16 0
-15 211 16 0
-15 243 16 0
-15 211 243 0
16 -212 -244 0
16 -244 -17 0
16 -212 -17 0
-16 212 17 0
-16 244 17 0
-16 212 244 0
17 -213 -245 0
17 -245 -18 0
17 -213 -18 0
-17 213 18 0
-17 245 18 0
-17 213 245 0
18 -214 -246 0
18 -246 -19 0
18 -214 -19 0
-18 214 19 0
-18 246 19 0
-18 214 246 0
19 -215 -247 0
19 -247 -20 0
19 -215 -20 0
-19 215 20 0
-19 247 20 0
-19 215 247 0
20 -216 -248 0
20 -248 -21 0
20 -216 -21 0
-20 216 21 0
-20 248 21 0
-20 216 248 0
21 -217 -249 0
21 -249 -22 0
21 -217 -22 0
-21 217 22 0
-21 249 22 0
-21 217 249 0
22 -218 -250 0
22 -250 -23 0
22 -218 -23 0
-22 218 23 0
-22 250 23 0
-22 218 250 0
23 -219 -251 0
23 -251 -24 0
23 -219 -24 0
-23 219 24 0
-23 251 24 0
-23 219 251 0
24 -220 -252 0
24 -252 -25 0
24 -220 -25 0
-24 220 25 0
-24 252 25 0
-24 220 252 0
25 -221 -253 0
25 -253 -26 0
25 -221 -26 0
-25 221 26 0
-25 253 26 0
-25 221 253 0
26 -222 -254 0
26 -254 -27 0
26 -222 -27 0
-26 222 27 0
-26 254 27 0
-26 222 254 0
27 -223 -255 0
27 -255 -28 0
27 -223 -28 0
-27 223 28 0
-27 255 28 0
-27 223 255 0
28 -224 -256 0
28 -256 -29 0
28 -224 -29 0
-28 224 29 0
-28 256 29 0
-28 224 256 0
29 -225 -257 0
29 -257 -30 0
29 -225 -30 0
-29 225 30 0
-29 257 30 0
-29 225 257 0
30 -226 -258 0
30 -258 -31 0
30 -226 -31 0
-30 226 31 0
-30 258 31 0
-30 226 258 0
31 -227 -259 0
31 -259 -32 0
31 -227 -32 0
-31 227 32 0
-31 259 32 0
-31 227 259 0
32 -228 -260 0
32 -260 -33 0
32 -228 -33 0
-32 228 33 0
-32 260 33 0
-32 228 260 0
33 -229 -261 0
33 -261 -34 0
33 -229 -34 0
-33 261 34 0
-33 229 261 0
-33 229 34 0
-34 35 36 0
34 -35 0
34 -36 0
35 -230 -262 0
35 -231 -262 -263 0
-35 262 0
-35 230 231 0
-35 230 263 0
36 -230 -231 -263 0
-36 230 0
-36 231 0
-36 263 0
-37 202 38 0
-37 7 38 0
-37 -202 234 -7 0
-37 202 -234 -7 0
-37 202 234 7 0
37 -202 7 -38 0
37 202 234 -7 -38 0
37 -202 -234 -7 0
37 -234 7 -38 0
-38 203 39 0
-38 8 39 0
-38 -203 235 -8 0
-38 203 -235 -8 0
-38 203 235 8 0
38 -203 8 -39 0
38 203 235 -8 -39 0
38 -203 -235 -8 0
38 -235 8 -39 0
-39 204 40 0
-39 9 40 0
-39 -204 236 -9 0
-39 204 -236 -9 0
-39 204 236 9 0
39 -204 9 -40 0
39 204 236 -9 -40 0
39 -204 -236 -9 0
39 -236 9 -40 0
-40 205 41 0
-40 10 41 0
-40 -205 237 -10 0
-40 205 -237 -10 0
-40 205 237 10 0
40 -205 10 -41 0
40 205 237 -10 -41 0
40 -205 -237 -10 0
40 -237 10 -41 0
-41 206 42 0
-41 11 42 0
-41 -206 238 -11 0
-41 206 -238 -11 0
-41 206 238 11 0
41 -206 11 -42 0
41 206 238 -11 -42 0
41 -206 -238 -11 0
41 -238 11 -42 0
-42 207 43 0
-42 12 43 0
-42 -207 239 -12 0
-42 207 -239 -12 0
-42 207 239 12 0
42 -207 12 -43 0
42 207 239 -12 -43 0
42 -207 -239 -12 0
42 -239 12 -43 0
-43 208 44 0
-43 13 44 0
-43 -208 240 -13 0
-43 208 -240 -13 0
-43 208 240 13 0
43 -208 13 -44 0
43 208 240 -13 -44 0
43 -208 -240 -13 0
43 -240 13 -44 0
-44 209 45 0
-44 14 45 0
-44 -209 241 -14 0
-44 209 -241 -14 0
-44 209 241 14 0
44 -209 14 -45 0
44 209 241 -14 -45 0
44 -209 -241 -14 0
44 -241 14 -45 0
-45 210 46 0
-45 15 46 0
-45 -210 242 -15 0
-45 210 -242 -15 0
-45 210 242 15 0
45 -210 15 -46 0
45 210 242 -15 -46 0
45 -210 -242 -15 0
45 -242 15 -46 0
-46 211 47 0
-46 16 47 0
-46 -211 243 -16 0
-46 211 -243 -16 0
-46 211 243 16 0
46 -211 16 -47 0
46 211 243 -16 -47 0
46 -211 -243 -16 0
46 -243 16 -47 0
-47 212 48 0
-47 17 48 0
-47 -212 244 -17 0
-47 212 -244 -17 0
-47 212 244 17 0
47 -212 17 -48 0
47 212 244 -17 -48 0
47 -212 -244 -17 0
47 -244 17 -48 0
-48 213 49 0
-48 18 49 0
-48 -213 245 -18 0
-48 213 -245 -18 0
-48 213 245 18 0
48 -213 18 -49 0
48 213 245 -18 -49 0
48 -213 -245 -18 0
48 -245 18 -49 0
-49 214 50 0
-49 19 50 0
-49 -214 246 -19 0
-49 214 -246 -19 0
-49 214 246 19 0
49 -214 19 -50 0
49 214 246 -19 -50 0
49 -214 -246 -19 0
49 -246 19 -50 0
-50 215 51 0
-50 20 51 0
-50 -215 247 -20 0
-50 215 -247 -20 0
-50 215 247 20 0
50 -215 20 -51 0
50 215 247 -20 -51 0
50 -215 -247 -20 0
50 -247 20 -51 0
-51 216 52 0
-51 21 52 0
-51 -216 248 -21 0
-51 216 -248 -21 0
-51 216 248 21 0
51 -216 21 -52 0
51 216 248 -21 -52 0
51 -216 -248 -21 0
51 -248 21 -52 0
-52 217 53 0
-52 22 53 0
-52 -217 249 -22 0
-52 217 -249 -22 0
-52 217 249 22 0
52 -217 22 -53 0
52 217 249 -22 -53 0
52 -217 -249 -22 0
52 -249 22 -53 0
-53 218 54 0
-53 23 54 0
-53 -218 250 -23 0
-53 218 -250 -23 0
-53 218 250 23 0
53 -218 23 -54 0
53 218 250 -23 -54 0
53 -218 -250 -23 0
53 -250 23 -54 0
-54 219 55 0
-54 24 55 0
-54 -219 251 -24 0
-54 219 -251 -24 0
-54 219 251 24 0
54 -219 24 -55 0
54 219 251 -24 -55 0
54 -219 -251 -24 0
54 -251 24 -55 0
-55 220 56 0
-55 25 56 0
-55 -220 252 -25 0
-55 220 -252 -25 0
-55 220 252 25 0
55 -220 25 -56 0
55 220 252 -25 -56 0
55 -220 -252 -25 0
55 -252 25 -56 0
-56 221 57 0
-56 26 57 0
-56 -221 253 -26 0
-56 221 -253 -26 0
-56 221 253 26 0
56 -221 26 -57 0
56 221 253 -26 -57 0
56 -221 -253 -26 0
56 -253 26 -57 0
-57 222 58 0
-57 27 58 0
-57 -222 254 -27 0
-57 222 -254 -27 0
-57 222 254 27 0
57 -222 27 -58 0
57 222 254 -27 -58 0
57 -222 -254 -27 0
57 -254 27 -58 0
-58 223 59 0
-58 28 59 0
-58 -223 255 -28 0
-58 223 -255 -28 0
-58 223 255 28 0
58 -223 28 -59 0
58 223 255 -28 -59 0
58 -223 -255 -28 0
58 -255 28 -59 0
-59 224 60 0
-59 29 60 0
-59 -224 256 -29 0
-59 224 -256 -29 0
-59 224 256 29 0
59 -224 29 -60 0
59 224 256 -29 -60 0
59 -224 -256 -29 0
59 -256 29 -60 0
-60 225 61 0
-60 30 61 0
-60 -225 257 -30 0
-60 225 -257 -30 0
-60 225 257 30 0
60 -225 30 -61 0
60 225 257 -30 -61 0
60 -225 -257 -30 0
60 -257 30 -61 0
-61 226 62 0
-61 31 62 0
-61 -226 258 -31 0
-61 226 -258 -31 0
-61 226 258 31 0
61 -226 31 -62 0
61 226 258 -31 -62 0
61 -226 -258 -31 0
61 -258 31 -62 0
-62 227 63 0
-62 32 63 0
-62 -227 259 -32 0
-62 227 -259 -32 0
-62 227 259 32 0
62 -227 32 -63 0
62 227 259 -32 -63 0
62 -227 -259 -32 0
62 -259 32 -63 0
-63 260 64 0
-63 33 64 0
-63 228 -260 -33 0
-63 -228 260 -33 0
-63 228 260 33 0
63 -228 33 -64 0
63 228 260 -33 -64 0
63 -260 33 -64 0
63 -228 -260 -33 0
64 -65 -66 0
64 -262 -36 -66 0
64 -262 -65 -36 0
-64 36 66 0
-64 262 65 0
-64 65 66 0
-64 65 36 0
-64 262 66 0
65 -229 -261 0
-65 229 0
-65 261 0
66 34 -67 0
66 -34 67 0
-66 -34 -67 0
-66 34 67 0
67 229 -261 0
67 -229 261 0
-67 -229 -261 0
-67 229 261 0
-68 -69 -70 0
-68 69 70 0
68 69 -70 0
68 -69 70 0
-69 200 232 0
69 -200 0
69 -232 0
70 -201 -233 0
70 -233 -6 0
70 -201 -6 0
-70 201 6 0
-70 233 6 0
-70 201 233 0
71 -72 175 0
71 72 -175 0
-71 72 175 0
-71 -72 -175 0
72 -201 -103 0
72 -201 -73 0
72 -73 -103 0
-72 73 103 0
-72 201 103 0
-72 201 73 0
-73 -74 -75 0
-73 74 75 0
73 74 -75 0
73 -74 75 0
74 201 -233 0
-74 -201 0
-74 233 0
75 -202 -234 0
75 -234 -76 0
-75 234 0
-75 202 76 0
76 -203 -235 0
76 -235 -77 0
-76 235 0
-76 203 77 0
77 -204 -236 0
77 -236 -78 0
-77 236 0
-77 204 78 0
78 -205 -237 0
78 -237 -79 0
-78 237 0
-78 205 79 0
79 -206 -238 0
79 -238 -80 0
-79 238 0
-79 206 80 0
80 -207 -239 0
80 -239 -81 0
-80 239 0
-80 207 81 0
81 -208 -240 0
81 -240 -82 0
-81 240 0
-81 208 82 0
82 -209 -241 0
82 -241 -83 0
-82 241 0
-82 209 83 0
83 -210 -242 0
83 -242 -84 0
-83 242 0
-83 210 84 0
84 -211 -243 0
84 -243 -85 0
-84 243 0
-84 211 85 0
85 -212 -244 0
85 -244 -86 0
-85 244 0
-85 212 86 0
86 -213 -245 0
86 -245 -87 0
-86 245 0
-86 213 87 0
87 -214 -246 0
87 -246 -88 0
-87 246 0
-87 214 88 0
88 -215 -247 0
88 -247 -89 0
-88 247 0
-88 215 89 0
89 -216 -248 0
89 -248 -90 0
-89 248 0
-89 216 90 0
90 -217 -249 0
90 -249 -91 0
-90 249 0
-90 217 91 0
91 -218 -250 0
91 -250 -92 0
-91 250 0
-91 218 92 0
92 -219 -251 0
92 -251 -93 0
-92 251 0
-92 219 93 0
93 -220 -252 0
93 -252 -94 0
-93 252 0
-93 220 94 0
94 -221 -253 0
94 -253 -95 0
-94 253 0
-94 221 95 0
95 -222 -254 0
95 -254 -96 0
-95 254 0
-95 222 96 0
96 -223 -255 0
96 -255 -97 0
-96 255 0
-96 223 97 0
97 -224 -256 0
97 -256 -98 0
-97 256 0
-97 224 98 0
98 -225 -257 0
98 -257 -99 0
-98 257 0
-98 225 99 0
99 -226 -258 0
99 -258 -100 0
-99 258 0
-99 226 100 0
100 -227 -259 0
100 -259 -101 0
-100 259 0
-100 227 101 0
101 -228 -260 0
101 -260 -102 0
-101 260 0
-101 228 102 0
102 -229 -261 0
102 -261 -35 0
-102 261 0
-102 229 35 0
103 -202 -106 0
103 -202 -104 0
103 -104 -106 0
-103 104 106 0
-103 202 106 0
-103 202 104 0
-104 -76 -105 0
-104 76 105 0
104 76 -105 0
104 -76 105 0
105 202 -234 0
-105 -202 0
-105 234 0
106 -203 -109 0
106 -203 -107 0
106 -107 -109 0
-106 107 109 0
-106 203 109 0
-106 203 107 0
-107 -77 -108 0
-107 77 108 0
107 77 -108 0
107 -77 108 0
108 203 -235 0
-108 -203 0
-108 235 0
109 -204 -112 0
109 -204 -110 0
109 -110 -112 0
-109 110 112 0
-109 204 112 0
-109 204 110 0
-110 -78 -111 0
-110 78 111 0
110 78 -111 0
110 -78 111 0
111 204 -236 0
-111 -204 0
-111 236 0
112 -205 -115 0
112 -205 -113 0
112 -113 -115 0
-112 113 115 0
-112 205 115 0
-112 205 113 0
-113 -79 -114 0
-113 79 114 0
113 79 -114 0
113 -79 114 0
114 205 -237 0
-114 -205 0
-114 237 0
115 -206 -118 0
115 -206 -116 0
115 -116 -118 0
-115 116 118 0
-115 206 118 0
-115 206 116 0
-116 -80 -117 0
-116 80 117 0
116 80 -117 0
116 -80 117 0
117 206 -238 0
-117 -206 0
-117 238 0
118 -207 -121 0
118 -207 -119 0
118 -119 -121 0
-118 119 121 0
-118 207 121 0
-118 207 119 0
-119 -81 -120 0
-119 81 120 0
119 81 -120 0
119 -81 120 0
120 207 -239 0
-120 -207 0
-120 239 0
121 -208 -124 0
121 -208 -122 0
121 -122 -124 0
-121 122 124 0
-121 208 124 0
-121 208 122 0
-122 -82 -123 0
-122 82 123 0
122 82 -123 0
122 -82 123 0
123 208 -240 0
-123 -208 0
-123 240 0
124 -209 -125 0
124 -241 83 -125 0
124 -209 -83 0
124 241 -83 -125 0
-124 209 125 0
-124 209 241 83 0
-124 83 125 0
-124 209 -241 -83 0
125 -210 -128 0
125 -210 -126 0
125 -126 -128 0
-125 126 128 0
-125 210 128 0
-125 210 126 0
-126 -84 -127 0
-126 84 127 0
126 84 -127 0
126 -84 127 0
127 210 -242 0
-127 -210 0
-127 242 0
128 -211 -131 0
128 -211 -129 0
128 -129 -131 0
-128 129 131 0
-128 211 131 0
-128 211 129 0
-129 -85 -130 0
-129 85 130 0
129 85 -130 0
129 -85 130 0
130 211 -243 0
-130 -211 0
-130 243 0
131 -212 -134 0
131 -212 -132 0
131 -132 -134 0
-131 132 134 0
-131 212 134 0
-131 212 132 0
-132 -86 -133 0
-132 86 133 0
132 86 -133 0
132 -86 133 0
133 212 -244 0
-133 -212 0
-133 244 0
134 -213 -135 0
134 -245 87 -135 0
134 -213 -87 0
134 245 -87 -135 0
-134 213 135 0
-134 213 245 87 0
-134 87 135 0
-134 213 -245 -87 0
135 -214 -138 0
135 -214 -136 0
135 -136 -138 0
-135 136 138 0
-135 214 138 0
-135 214 136 0
-136 -88 -137 0
-136 88 137 0
136 88 -137 0
136 -88 137 0
137 214 -246 0
-137 -214 0
-137 246 0
138 -215 -141 0
138 -215 -139 0
138 -139 -141 0
-138 139 141 0
-138 215 141 0
-138 215 139 0
-139 -89 -140 0
-139 89 140 0
139 89 -140 0
139 -89 140 0
140 215 -247 0
-140 -215 0
-140 247 0
141 -216 -144 0
141 -216 -142 0
141 -142 -144 0
-141 142 144 0
-141 216 144 0
-141 216 142 0
-142 -90 -143 0
-142 90 143 0
142 90 -143 0
142 -90 143 0
143 216 -248 0
-143 -216 0
-143 248 0
144 -217 -145 0
144 -249 91 -145 0
144 -217 -91 0
144 249 -91 -145 0
-144 217 145 0
-144 217 249 91 0
-144 91 145 0
-144 217 -249 -91 0
145 -218 -148 0
145 -218 -146 0
145 -146 -148 0
-145 146 148 0
-145 218 148 0
-145 218 146 0
-146 -92 -147 0
-146 92 147 0
146 92 -147 0
146 -92 147 0
147 218 -250 0
-147 -218 0
-147 250 0
148 -219 -151 0
148 -219 -149 0
148 -149 -151 0
-148 149 151 0
-148 219 151 0
-148 219 149 0
-149 -93 -150 0
-149 93 150 0
149 93 -150 0
149 -93 150 0
150 219 -251 0
-150 -219 0
-150 251 0
151 -220 -154 0
151 -220 -152 0
151 -152 -154 0
-151 152 154 0
-151 220 154 0
-151 220 152 0
-152 -94 -153 0
-152 94 153 0
152 94 -153 0
152 -94 153 0
153 220 -252 0
-153 -220 0
-153 252 0
154 -221 -155 0
154 -253 95 -155 0
154 -221 -95 0
154 253 -95 -155 0
-154 221 155 0
-154 221 253 95 0
-154 95 155 0
-154 221 -253 -95 0
155 -222 -158 0
155 -222 -156 0
155 -156 -158 0
-155 156 158 0
-155 222 158 0
-155 222 156 0
-156 -96 -157 0
-156 96 157 0
156 96 -157 0
156 -96 157 0
157 222 -254 0
-157 -222 0
-157 254 0
158 -223 -161 0
158 -223 -159 0
158 -159 -161 0
-158 159 161 0
-158 223 161 0
-158 223 159 0
-159 -97 -160 0
-159 97 160 0
159 97 -160 0
159 -97 160 0
160 223 -255 0
-160 -223 0
-160 255 0
161 -224 -164 0
161 -224 -162 0
161 -162 -164 0
-161 162 164 0
-161 224 164 0
-161 224 162 0
-162 -98 -163 0
-162 98 163 0
162 98 -163 0
162 -98 163 0
163 224 -256 0
-163 -224 0
-163 256 0
164 -225 -165 0
164 -257 99 -165 0
164 -225 -99 0
164 257 -99 -165 0
-164 225 165 0
-164 225 257 99 0
-164 99 165 0
-164 225 -257 -99 0
165 -226 -168 0
165 -226 -166 0
165 -166 -168 0
-165 166 168 0
-165 226 168 0
-165 226 166 0
-166 -100 -167 0
-166 100 167 0
166 100 -167 0
166 -100 167 0
167 226 -258 0
-167 -226 0
-167 258 0
168 -227 -169 0
168 -169 -171 0
168 -227 -171 0
-168 227 171 0
-168 169 171 0
-168 227 169 0
169 101 -170 0
169 -101 170 0
-169 -101 -170 0
-169 101 170 0
170 227 -259 0
-170 -227 0
-170 259 0
171 -228 -172 0
171 -172 -174 0
171 -228 -174 0
-171 228 174 0
-171 172 174 0
-171 228 172 0
172 102 -173 0
172 -102 173 0
-172 -102 -173 0
-172 102 173 0
173 228 -260 0
-173 -228 0
-173 260 0
174 -229 -36 0
174 -261 35 -36 0
174 -229 -35 0
174 261 -35 -36 0
-174 229 36 0
-174 229 261 35 0
-174 35 36 0
-174 229 -261 -35 0
-175 -69 -176 0
-175 69 176 0
175 69 -176 0
175 -69 176 0
176 -201 -233 0
176 -233 -75 0
-176 233 0
-176 201 75 0
177 37 -178 0
177 -37 178 0
-177 -37 -178 0
-177 37 178 0
178 -233 6 0
178 201 233 -6 0
178 -201 6 0
-178 -201 -6 0
-178 201 233 6 0
-178 -233 -6 0
179 103 -180 0
179 -103 180 0
-179 -103 -180 0
-179 103 180 0
180 -201 73 0
180 201 -73 0
-180 201 73 0
-180 -201 -73 0
-181 182 187 189 191 0
-181 182 -187 -189 191 0
181 -191 0
181 -187 189 0
181 -182 0
181 187 -189 0
182 183 -185 0
182 -183 185 0
-182 -183 -185 0
-182 183 185 0
183 38 -184 0
183 -38 184 0
-183 -38 -184 0
-183 38 184 0
184 -234 7 0
184 202 234 -7 0
184 -202 7 0
-184 -202 -7 0
-184 202 234 7 0
-184 -234 -7 0
185 106 -186 0
185 -106 186 0
-185 -106 -186 0
-185 106 186 0
186 -202 104 0
186 202 -104 0
-186 202 104 0
-186 -202 -104 0
187 39 -188 0
187 -39 188 0
-187 -39 -188 0
-187 39 188 0
188 -235 8 0
188 203 235 -8 0
188 -203 8 0
-188 -203 -8 0
-188 203 235 8 0
-188 -235 -8 0
189 109 -190 0
189 -109 190 0
-189 -109 -190 0
-189 109 190 0
190 -203 107 0
190 203 -107 0
-190 203 107 0
-190 -203 -107 0
-191 192 194 -196 -198 0
-191 -192 -194 -196 -198 0
-191 192 194 196 198 0
-191 -192 -194 196 198 0
191 192 -194 0
191 -192 194 0
191 196 -198 0
191 -196 198 0
192 40 -193 0
192 -40 193 0
-192 -40 -193 0
-192 40 193 0
193 -236 9 0
193 204 236 -9 0
193 -204 9 0
-193 -204 -9 0
-193 204 236 9 0
-193 -236 -9 0
194 112 -195 0
194 -112 195 0
-194 -112 -195 0
-194 112 195 0
195 -204 110 0
195 204 -110 0
-195 204 110 0
-195 -204 -110 0
196 41 -197 0
196 -41 197 0
-196 -41 -197 0
-196 41 197 0
197 -237 10 0
197 205 237 -10 0
197 -205 10 0
-197 -205 -10 0
-197 205 237 10 0
-197 -237 -10 0
198 115 -199 0
198 -115 199 0
-198 -115 -199 0
-198 115 199 0
199 -205 113 0
199 205 -113 0
-199 205 113 0
-199 -205 -113 0
-264 0
2 0

